c This is QMaxSAT 2017 based on 14.07
c This is Glucose 3.0
c This is MiniSat 2.2.0
c WARNING: for repeatability, setting FPU to use double precision
c card = mrwto, comp = 0, pmodel = 0, narr = 37, mct = 76, verb = 0
cr firstCPXsol 0 0 0
c top = 189219
c |  Number of variables:    25088                                            |
c |  Number of clauses:      2153624                                          |
c |  Weight of hard clauses: 189219                                           |
c |  Number of soft clauses: 410700                                           |
c |  Number of unit soft clauses: 0                                           |
c |  Maximum Cardinality (by unit): 13304090     (0           )               |
c last restart ## conflicts  :  0 8596 
o 906 | cpuTime 104.97 s
c Sum of weights = 359570
c A number of soft clauses remained = 11100
c MRWTO encoding for Pseudo-Boolean Constraints
c sizeMax=906
c No.0 Divisor=10	generated by pow1
c No.1 Divisor=10	generated by pow1
c No.2 Divisor=10	generated by pow1
c p0= 10	p1= 10	p2= 10	
c number of digits = 4
c linkingVar[0].size = 10, linkingVar[1].size = 10, linkingVar[2].size = 10, linkingVar[3].size = 1, 
c Pseudo-Boolean Constraints: 203271 variables and 1611387 clauses
c Sum of weights = 359570
c A number of soft clauses remained = 11100
c MRWTO encoding for Pseudo-Boolean Constraints
c sizeMax=906
c No.0 Divisor=10	generated by pow1
c No.1 Divisor=10	generated by pow1
c No.2 Divisor=10	generated by pow1
c p0= 10	p1= 10	p2= 10	
c number of digits = 4
c linkingVar[0].size = 10, linkingVar[1].size = 10, linkingVar[2].size = 10, linkingVar[3].size = 1, 
c Pseudo-Boolean Constraints: 203271 variables and 1611387 clauses
c Sum of weights = 359570
c A number of soft clauses remained = 11100
c MRWTO encoding for Pseudo-Boolean Constraints
c sizeMax=906
c No.0 Divisor=10	generated by pow1
c No.1 Divisor=10	generated by pow1
c No.2 Divisor=10	generated by pow1
c p0= 10	p1= 10	p2= 10	
c number of digits = 4
c linkingVar[0].size = 10, linkingVar[1].size = 10, linkingVar[2].size = 10, linkingVar[3].size = 1, 
c Pseudo-Boolean Constraints: 203271 variables and 1611387 clauses
c Sum of weights = 359570
c A number of soft clauses remained = 11100
c MRWTO encoding for Pseudo-Boolean Constraints
c sizeMax=906
c No.0 Divisor=10	generated by pow1
c No.1 Divisor=10	generated by pow1
c No.2 Divisor=10	generated by pow1
c p0= 10	p1= 10	p2= 10	
c number of digits = 4
c linkingVar[0].size = 10, linkingVar[1].size = 10, linkingVar[2].size = 10, linkingVar[3].size = 1, 
c Pseudo-Boolean Constraints: 203271 variables and 1611387 clauses
c Sum of weights = 359570
c A number of soft clauses remained = 11100
c MRWTO encoding for Pseudo-Boolean Constraints
c sizeMax=906
c No.0 Divisor=10	generated by pow1
c No.1 Divisor=10	generated by pow1
c No.2 Divisor=10	generated by pow1
c p0= 10	p1= 10	p2= 10	
c number of digits = 4
c linkingVar[0].size = 10, linkingVar[1].size = 10, linkingVar[2].size = 10, linkingVar[3].size = 1, 
c Pseudo-Boolean Constraints: 203271 variables and 1611387 clauses
c Sum of weights = 359570
c A number of soft clauses remained = 11100
c MRWTO encoding for Pseudo-Boolean Constraints
c sizeMax=906
c No.0 Divisor=10	generated by pow1
c No.1 Divisor=10	generated by pow1
c No.2 Divisor=10	generated by pow1
c p0= 10	p1= 10	p2= 10	
c number of digits = 4
c linkingVar[0].size = 10, linkingVar[1].size = 10, linkingVar[2].size = 10, linkingVar[3].size = 1, 
c Pseudo-Boolean Constraints: 203271 variables and 1611387 clauses
c Sum of weights = 359570
c A number of soft clauses remained = 11100
c MRWTO encoding for Pseudo-Boolean Constraints
c sizeMax=906
c No.0 Divisor=10	generated by pow1
c No.1 Divisor=10	generated by pow1
c No.2 Divisor=10	generated by pow1
c p0= 10	p1= 10	p2= 10	
c number of digits = 4
c linkingVar[0].size = 10, linkingVar[1].size = 10, linkingVar[2].size = 10, linkingVar[3].size = 1, 
c Pseudo-Boolean Constraints: 203271 variables and 1611387 clauses
c Sum of weights = 359570
c A number of soft clauses remained = 11100
c MRWTO encoding for Pseudo-Boolean Constraints
c sizeMax=906
c No.0 Divisor=10	generated by pow1
c No.1 Divisor=10	generated by pow1
c No.2 Divisor=10	generated by pow1
c p0= 10	p1= 10	p2= 10	
c number of digits = 4
c linkingVar[0].size = 10, linkingVar[1].size = 10, linkingVar[2].size = 10, linkingVar[3].size = 1, 
c Pseudo-Boolean Constraints: 203271 variables and 1611387 clauses
c Sum of weights = 359570
c A number of soft clauses remained = 11100
c MRWTO encoding for Pseudo-Boolean Constraints
c sizeMax=906
c No.0 Divisor=10	generated by pow1
c No.1 Divisor=10	generated by pow1
c No.2 Divisor=10	generated by pow1
c p0= 10	p1= 10	p2= 10	
c number of digits = 4
c linkingVar[0].size = 10, linkingVar[1].size = 10, linkingVar[2].size = 10, linkingVar[3].size = 1, 
c Pseudo-Boolean Constraints: 203271 variables and 1611387 clauses
c Sum of weights = 359570
c A number of soft clauses remained = 11100
c MRWTO encoding for Pseudo-Boolean Constraints
c sizeMax=906
c No.0 Divisor=10	generated by pow1
c No.1 Divisor=10	generated by pow1
c No.2 Divisor=10	generated by pow1
c p0= 10	p1= 10	p2= 10	
c number of digits = 4
c linkingVar[0].size = 10, linkingVar[1].size = 10, linkingVar[2].size = 10, linkingVar[3].size = 1, 
c Pseudo-Boolean Constraints: 203271 variables and 1611387 clauses
c Sum of weights = 359570
c A number of soft clauses remained = 11100
c MRWTO encoding for Pseudo-Boolean Constraints
c sizeMax=906
c No.0 Divisor=10	generated by pow1
c No.1 Divisor=10	generated by pow1
c No.2 Divisor=10	generated by pow1
c p0= 10	p1= 10	p2= 10	
c number of digits = 4
c linkingVar[0].size = 10, linkingVar[1].size = 10, linkingVar[2].size = 10, linkingVar[3].size = 1, 
c Pseudo-Boolean Constraints: 203271 variables and 1611387 clauses
c Sum of weights = 359570
c A number of soft clauses remained = 11100
c MRWTO encoding for Pseudo-Boolean Constraints
c sizeMax=906
c No.0 Divisor=10	generated by pow1
c No.1 Divisor=10	generated by pow1
c No.2 Divisor=10	generated by pow1
c p0= 10	p1= 10	p2= 10	
c number of digits = 4
c linkingVar[0].size = 10, linkingVar[1].size = 10, linkingVar[2].size = 10, linkingVar[3].size = 1, 
c Pseudo-Boolean Constraints: 203271 variables and 1611387 clauses
c Sum of weights = 359570
c A number of soft clauses remained = 11100
c MRWTO encoding for Pseudo-Boolean Constraints
c sizeMax=906
c No.0 Divisor=10	generated by pow1
c No.1 Divisor=10	generated by pow1
c No.2 Divisor=10	generated by pow1
c p0= 10	p1= 10	p2= 10	
c number of digits = 4
c linkingVar[0].size = 10, linkingVar[1].size = 10, linkingVar[2].size = 10, linkingVar[3].size = 1, 
c Pseudo-Boolean Constraints: 203271 variables and 1611387 clauses
c Sum of weights = 359570
c A number of soft clauses remained = 11100
c MRWTO encoding for Pseudo-Boolean Constraints
c sizeMax=906
c No.0 Divisor=10	generated by pow1
c No.1 Divisor=10	generated by pow1
c No.2 Divisor=10	generated by pow1
c p0= 10	p1= 10	p2= 10	
c number of digits = 4
c linkingVar[0].size = 10, linkingVar[1].size = 10, linkingVar[2].size = 10, linkingVar[3].size = 1, 
c Pseudo-Boolean Constraints: 203271 variables and 1611387 clauses
c Sum of weights = 359570
c A number of soft clauses remained = 11100
c MRWTO encoding for Pseudo-Boolean Constraints
c sizeMax=906
c No.0 Divisor=10	generated by pow1
c No.1 Divisor=10	generated by pow1
c No.2 Divisor=10	generated by pow1
c p0= 10	p1= 10	p2= 10	
c number of digits = 4
c linkingVar[0].size = 10, linkingVar[1].size = 10, linkingVar[2].size = 10, linkingVar[3].size = 1, 
c Pseudo-Boolean Constraints: 203271 variables and 1611387 clauses
c Sum of weights = 359570
c A number of soft clauses remained = 11100
c MRWTO encoding for Pseudo-Boolean Constraints
c sizeMax=906
c No.0 Divisor=10	generated by pow1
c No.1 Divisor=10	generated by pow1
c No.2 Divisor=10	generated by pow1
c p0= 10	p1= 10	p2= 10	
c number of digits = 4
c linkingVar[0].size = 10, linkingVar[1].size = 10, linkingVar[2].size = 10, linkingVar[3].size = 1, 
c Pseudo-Boolean Constraints: 203271 variables and 1611387 clauses
c Sum of weights = 359570
c A number of soft clauses remained = 11100
c MRWTO encoding for Pseudo-Boolean Constraints
c sizeMax=906
c No.0 Divisor=10	generated by pow1
c No.1 Divisor=10	generated by pow1
c No.2 Divisor=10	generated by pow1
c p0= 10	p1= 10	p2= 10	
c number of digits = 4
c linkingVar[0].size = 10, linkingVar[1].size = 10, linkingVar[2].size = 10, linkingVar[3].size = 1, 
c Pseudo-Boolean Constraints: 203271 variables and 1611387 clauses
c Sum of weights = 359570
c A number of soft clauses remained = 11100
c MRWTO encoding for Pseudo-Boolean Constraints
c sizeMax=906
c No.0 Divisor=10	generated by pow1
c No.1 Divisor=10	generated by pow1
c No.2 Divisor=10	generated by pow1
c p0= 10	p1= 10	p2= 10	
c number of digits = 4
c linkingVar[0].size = 10, linkingVar[1].size = 10, linkingVar[2].size = 10, linkingVar[3].size = 1, 
c Pseudo-Boolean Constraints: 203271 variables and 1611387 clauses
c Sum of weights = 359570
c A number of soft clauses remained = 11100
c MRWTO encoding for Pseudo-Boolean Constraints
c sizeMax=906
c No.0 Divisor=10	generated by pow1
c No.1 Divisor=10	generated by pow1
c No.2 Divisor=10	generated by pow1
c p0= 10	p1= 10	p2= 10	
c number of digits = 4
c linkingVar[0].size = 10, linkingVar[1].size = 10, linkingVar[2].size = 10, linkingVar[3].size = 1, 
c Pseudo-Boolean Constraints: 203271 variables and 1611387 clauses
c Sum of weights = 359570
c A number of soft clauses remained = 11100
c MRWTO encoding for Pseudo-Boolean Constraints
c sizeMax=906
c No.0 Divisor=10	generated by pow1
c No.1 Divisor=10	generated by pow1
c No.2 Divisor=10	generated by pow1
c p0= 10	p1= 10	p2= 10	
c number of digits = 4
c linkingVar[0].size = 10, linkingVar[1].size = 10, linkingVar[2].size = 10, linkingVar[3].size = 1, 
c Pseudo-Boolean Constraints: 203271 variables and 1611387 clauses
c Sum of weights = 359570
c A number of soft clauses remained = 11100
c MRWTO encoding for Pseudo-Boolean Constraints
c sizeMax=906
c No.0 Divisor=10	generated by pow1
c No.1 Divisor=10	generated by pow1
c No.2 Divisor=10	generated by pow1
c p0= 10	p1= 10	p2= 10	
c number of digits = 4
c linkingVar[0].size = 10, linkingVar[1].size = 10, linkingVar[2].size = 10, linkingVar[3].size = 1, 
c Pseudo-Boolean Constraints: 203271 variables and 1611387 clauses
c Sum of weights = 359570
c A number of soft clauses remained = 11100
c MRWTO encoding for Pseudo-Boolean Constraints
c sizeMax=906
c No.0 Divisor=10	generated by pow1
c No.1 Divisor=10	generated by pow1
c No.2 Divisor=10	generated by pow1
c p0= 10	p1= 10	p2= 10	
c number of digits = 4
c linkingVar[0].size = 10, linkingVar[1].size = 10, linkingVar[2].size = 10, linkingVar[3].size = 1, 
c Pseudo-Boolean Constraints: 203271 variables and 1611387 clauses
c Sum of weights = 359570
c A number of soft clauses remained = 11100
c MRWTO encoding for Pseudo-Boolean Constraints
c sizeMax=906
c No.0 Divisor=10	generated by pow1
c No.1 Divisor=10	generated by pow1
c No.2 Divisor=10	generated by pow1
c p0= 10	p1= 10	p2= 10	
c number of digits = 4
c linkingVar[0].size = 10, linkingVar[1].size = 10, linkingVar[2].size = 10, linkingVar[3].size = 1, 
c Pseudo-Boolean Constraints: 203271 variables and 1611387 clauses
c Sum of weights = 359570
c A number of soft clauses remained = 11100
c MRWTO encoding for Pseudo-Boolean Constraints
c sizeMax=906
c No.0 Divisor=10	generated by pow1
c No.1 Divisor=10	generated by pow1
c No.2 Divisor=10	generated by pow1
c p0= 10	p1= 10	p2= 10	
c number of digits = 4
c linkingVar[0].size = 10, linkingVar[1].size = 10, linkingVar[2].size = 10, linkingVar[3].size = 1, 
c Pseudo-Boolean Constraints: 203271 variables and 1611387 clauses
c Sum of weights = 359570
c A number of soft clauses remained = 11100
c MRWTO encoding for Pseudo-Boolean Constraints
c sizeMax=906
c No.0 Divisor=10	generated by pow1
c No.1 Divisor=10	generated by pow1
c No.2 Divisor=10	generated by pow1
c p0= 10	p1= 10	p2= 10	
c number of digits = 4
c linkingVar[0].size = 10, linkingVar[1].size = 10, linkingVar[2].size = 10, linkingVar[3].size = 1, 
c Pseudo-Boolean Constraints: 203271 variables and 1611387 clauses
c Sum of weights = 359570
c A number of soft clauses remained = 11100
c MRWTO encoding for Pseudo-Boolean Constraints
c sizeMax=906
c No.0 Divisor=10	generated by pow1
c No.1 Divisor=10	generated by pow1
c No.2 Divisor=10	generated by pow1
c p0= 10	p1= 10	p2= 10	
c number of digits = 4
c linkingVar[0].size = 10, linkingVar[1].size = 10, linkingVar[2].size = 10, linkingVar[3].size = 1, 
c Pseudo-Boolean Constraints: 203271 variables and 1611387 clauses
c Sum of weights = 359570
c A number of soft clauses remained = 11100
c MRWTO encoding for Pseudo-Boolean Constraints
c sizeMax=906
c No.0 Divisor=10	generated by pow1
c No.1 Divisor=10	generated by pow1
c No.2 Divisor=10	generated by pow1
c p0= 10	p1= 10	p2= 10	
c number of digits = 4
c linkingVar[0].size = 10, linkingVar[1].size = 10, linkingVar[2].size = 10, linkingVar[3].size = 1, 
c Pseudo-Boolean Constraints: 203271 variables and 1611387 clauses
c Sum of weights = 359570
c A number of soft clauses remained = 11100
c MRWTO encoding for Pseudo-Boolean Constraints
c sizeMax=906
c No.0 Divisor=10	generated by pow1
c No.1 Divisor=10	generated by pow1
c No.2 Divisor=10	generated by pow1
c p0= 10	p1= 10	p2= 10	
c number of digits = 4
c linkingVar[0].size = 10, linkingVar[1].size = 10, linkingVar[2].size = 10, linkingVar[3].size = 1, 
c Pseudo-Boolean Constraints: 203271 variables and 1611387 clauses
c Sum of weights = 359570
c A number of soft clauses remained = 11100
c MRWTO encoding for Pseudo-Boolean Constraints
c sizeMax=906
c No.0 Divisor=10	generated by pow1
c No.1 Divisor=10	generated by pow1
c No.2 Divisor=10	generated by pow1
c p0= 10	p1= 10	p2= 10	
c number of digits = 4
c linkingVar[0].size = 10, linkingVar[1].size = 10, linkingVar[2].size = 10, linkingVar[3].size = 1, 
c Pseudo-Boolean Constraints: 203271 variables and 1611387 clauses
c Sum of weights = 359570
c A number of soft clauses remained = 11100
c MRWTO encoding for Pseudo-Boolean Constraints
c sizeMax=906
c No.0 Divisor=10	generated by pow1
c No.1 Divisor=10	generated by pow1
c No.2 Divisor=10	generated by pow1
c p0= 10	p1= 10	p2= 10	
c number of digits = 4
c linkingVar[0].size = 10, linkingVar[1].size = 10, linkingVar[2].size = 10, linkingVar[3].size = 1, 
c Pseudo-Boolean Constraints: 203271 variables and 1611387 clauses
c Sum of weights = 359570
c A number of soft clauses remained = 11100
c MRWTO encoding for Pseudo-Boolean Constraints
c sizeMax=906
c No.0 Divisor=10	generated by pow1
c No.1 Divisor=10	generated by pow1
c No.2 Divisor=10	generated by pow1
c p0= 10	p1= 10	p2= 10	
c number of digits = 4
c linkingVar[0].size = 10, linkingVar[1].size = 10, linkingVar[2].size = 10, linkingVar[3].size = 1, 
c Pseudo-Boolean Constraints: 203271 variables and 1611387 clauses
c Sum of weights = 359570
c A number of soft clauses remained = 11100
c MRWTO encoding for Pseudo-Boolean Constraints
c sizeMax=906
c No.0 Divisor=10	generated by pow1
c No.1 Divisor=10	generated by pow1
c No.2 Divisor=10	generated by pow1
c p0= 10	p1= 10	p2= 10	
c number of digits = 4
c linkingVar[0].size = 10, linkingVar[1].size = 10, linkingVar[2].size = 10, linkingVar[3].size = 1, 
c Pseudo-Boolean Constraints: 203271 variables and 1611387 clauses
c Sum of weights = 359570
c A number of soft clauses remained = 11100
c MRWTO encoding for Pseudo-Boolean Constraints
c sizeMax=906
c No.0 Divisor=10	generated by pow1
c No.1 Divisor=10	generated by pow1
c No.2 Divisor=10	generated by pow1
c p0= 10	p1= 10	p2= 10	
c number of digits = 4
c linkingVar[0].size = 10, linkingVar[1].size = 10, linkingVar[2].size = 10, linkingVar[3].size = 1, 
c Pseudo-Boolean Constraints: 203271 variables and 1611387 clauses
c Sum of weights = 359570
c A number of soft clauses remained = 11100
c MRWTO encoding for Pseudo-Boolean Constraints
c sizeMax=906
c No.0 Divisor=10	generated by pow1
c No.1 Divisor=10	generated by pow1
c No.2 Divisor=10	generated by pow1
c p0= 10	p1= 10	p2= 10	
c number of digits = 4
c linkingVar[0].size = 10, linkingVar[1].size = 10, linkingVar[2].size = 10, linkingVar[3].size = 1, 
c Pseudo-Boolean Constraints: 203271 variables and 1611387 clauses
c Sum of weights = 359570
c A number of soft clauses remained = 11100
c MRWTO encoding for Pseudo-Boolean Constraints
c sizeMax=906
c No.0 Divisor=10	generated by pow1
c No.1 Divisor=10	generated by pow1
c No.2 Divisor=10	generated by pow1
c p0= 10	p1= 10	p2= 10	
c number of digits = 4
c linkingVar[0].size = 10, linkingVar[1].size = 10, linkingVar[2].size = 10, linkingVar[3].size = 1, 
c Pseudo-Boolean Constraints: 203271 variables and 1611387 clauses
c Sum of weights = 359570
c A number of soft clauses remained = 11100
c MRWTO encoding for Pseudo-Boolean Constraints
c sizeMax=906
c No.0 Divisor=10	generated by pow1
c No.1 Divisor=10	generated by pow1
c No.2 Divisor=10	generated by pow1
c p0= 10	p1= 10	p2= 10	
c number of digits = 4
c linkingVar[0].size = 10, linkingVar[1].size = 10, linkingVar[2].size = 10, linkingVar[3].size = 1, 
c Pseudo-Boolean Constraints: 203271 variables and 1611387 clauses
c Sum of weights = 359570
c A number of soft clauses remained = 11100
c MRWTO encoding for Pseudo-Boolean Constraints
c sizeMax=906
c No.0 Divisor=10	generated by pow1
c No.1 Divisor=10	generated by pow1
c No.2 Divisor=10	generated by pow1
c p0= 10	p1= 10	p2= 10	
c number of digits = 4
c linkingVar[0].size = 10, linkingVar[1].size = 10, linkingVar[2].size = 10, linkingVar[3].size = 1, 
c Pseudo-Boolean Constraints: 203271 variables and 1611387 clauses
c last restart ## conflicts  :  1013 195256 
o 567 | cpuTime 146.402 s
c last restart ## conflicts  :  310 83658 
o 407 | cpuTime 195.838 s
c last restart ## conflicts  :  6367 78147 
o 251 | cpuTime 213.14 s
c last restart ## conflicts  :  490 69712 
o 246 | cpuTime 262.598 s
c last restart ## conflicts  :  333 97661 
o 212 | cpuTime 342.709 s
c last restart ## conflicts  :  712 68164 
o 189 | cpuTime 555.116 s
c last restart ## conflicts  :  996291 134296 
o 182 | cpuTime 1671.41 s
c last restart ## conflicts  :  7914 23436 
o 171 | cpuTime 2808.2 s
s UNKNOWN
c Search is stopped by a limit (maybe time-limit)
cr positiVarArr: [ | 103(1->67) | 162(1->14) | 272(1->12) | 441(1->69) | 558(1->74) | 624(1->28) | 731(1->23) | 879(1->59) | 951(1->19) | 1106(1->62) | 1212(1->56) | 1311(1->43) | 1441(1->61) | 1560(1->68) | 1653(1->49) | 1755(1->39) | 1874(1->46) | 2006(1->66) | 2059(1->7) | 2206(1->42) | 2284(1->8) | 2398(1->10) | 2554(1->54) | 2637(1->25) | 2781(1->57) | 2867(1->31) | 2959(1->11) | 3069(1->9) | 3227(1->55) | 3348(1->64) | 3423(1->27) | 3560(1->52) | 3638(1->18) | 3766(1->34) | 3892(1->48) | 3960(1->4) | 4112(1->44) | 4210(2->30) | 4273(3->1) | 4398(4->1) | 4511(5->1) | 4704(6->76) | 4812(7->72) | 4897(8->45) | 4988(9->24) | 5054(10->1) | 5241(11->53) | 5358(12->58) | 5459(13->47) | 5500(14->1) | 5649(15->13) | 5715(16->1) | 5856(17->1) | 5947(18->1) | 6074(19->1) | 6201(20->5) | 6323(21->15) | 6420(22->1) | 6595(23->63) | 6629(24->1) | 6796(25->40) | 6889(26->21) | 6997(27->17) | 7142(28->50) | 7193(29->1) | 7376(30->60) | 7425(31->1) | 7510(32->1) | 7725(33->73) | 7790(34->26) | 7853(35->1) | 8010(36->22) | 8129(37->29) | 8228(38->16) | 8357(39->33) | 8409(40->1) | 8539(41->1) | 8696(42->36) | 8842(43->70) | 8885(44->1) | 8982(45->1) | 9143(46->35) | 9212(47->1) | 9301(48->1) | 9464(49->20) | 9524(50->1) | 9647(51->1) | 9767(52->1) | 9929(53->37) | 10010(54->6) | 10109(55->1) | 10211(56->1) | 10342(57->2) | 10450(58->1) | 10596(59->32) | 10660(60->1) | 10791(61->3) | 10971(62->71) | 10978(63->1) | 11089(64->1) | 11208(65->1) | 11347(66->1) | 11525(67->65) | 11647(68->75) | 11725(69->41) | 11767(70->1) | 11890(71->1) | 12071(72->51) | 12112(73->1) | 12282(74->38) | 12344(75->1) | 12442(76->1) | ]
cr the 1-th chain: [ 1->67->65->1 ] (#non-depot=2) {#cumul.=3}
cr the 2-th chain: [ 1->14->1 ] (#non-depot=1) {#cumul.=4}
cr the 3-th chain: [ 1->12->58->1 ] (#non-depot=2) {#cumul.=6}
cr the 4-th chain: [ 1->69->41->1 ] (#non-depot=2) {#cumul.=8}
cr the 5-th chain: [ 1->74->38->16->1 ] (#non-depot=3) {#cumul.=11}
cr the 6-th chain: [ 1->28->50->1 ] (#non-depot=2) {#cumul.=13}
cr the 7-th chain: [ 1->23->63->1 ] (#non-depot=2) {#cumul.=15}
cr the 8-th chain: [ 1->59->32->1 ] (#non-depot=2) {#cumul.=17}
cr the 9-th chain: [ 1->19->1 ] (#non-depot=1) {#cumul.=18}
cr the 10-th chain: [ 1->62->71->1 ] (#non-depot=2) {#cumul.=20}
cr the 11-th chain: [ 1->56->1 ] (#non-depot=1) {#cumul.=21}
cr the 12-th chain: [ 1->43->70->1 ] (#non-depot=2) {#cumul.=23}
cr the 13-th chain: [ 1->61->3->1 ] (#non-depot=2) {#cumul.=25}
cr the 14-th chain: [ 1->68->75->1 ] (#non-depot=2) {#cumul.=27}
cr the 15-th chain: [ 1->49->20->5->1 ] (#non-depot=3) {#cumul.=30}
cr the 16-th chain: [ 1->39->33->73->1 ] (#non-depot=3) {#cumul.=33}
cr the 17-th chain: [ 1->46->35->1 ] (#non-depot=2) {#cumul.=35}
cr the 18-th chain: [ 1->66->1 ] (#non-depot=1) {#cumul.=36}
cr the 19-th chain: [ 1->7->72->51->1 ] (#non-depot=3) {#cumul.=39}
cr the 20-th chain: [ 1->42->36->22->1 ] (#non-depot=3) {#cumul.=42}
cr the 21-th chain: [ 1->8->45->1 ] (#non-depot=2) {#cumul.=44}
cr the 22-th chain: [ 1->10->1 ] (#non-depot=1) {#cumul.=45}
cr the 23-th chain: [ 1->54->6->76->1 ] (#non-depot=3) {#cumul.=48}
cr the 24-th chain: [ 1->25->40->1 ] (#non-depot=2) {#cumul.=50}
cr the 25-th chain: [ 1->57->2->30->60->1 ] (#non-depot=4) {#cumul.=54}
cr the 26-th chain: [ 1->31->1 ] (#non-depot=1) {#cumul.=55}
cr the 27-th chain: [ 1->11->53->37->29->1 ] (#non-depot=4) {#cumul.=59}
cr the 28-th chain: [ 1->9->24->1 ] (#non-depot=2) {#cumul.=61}
cr the 29-th chain: [ 1->55->1 ] (#non-depot=1) {#cumul.=62}
cr the 30-th chain: [ 1->64->1 ] (#non-depot=1) {#cumul.=63}
cr the 31-th chain: [ 1->27->17->1 ] (#non-depot=2) {#cumul.=65}
cr the 32-th chain: [ 1->52->1 ] (#non-depot=1) {#cumul.=66}
cr the 33-th chain: [ 1->18->1 ] (#non-depot=1) {#cumul.=67}
cr the 34-th chain: [ 1->34->26->21->15->13->47->1 ] (#non-depot=6) {#cumul.=73}
cr the 35-th chain: [ 1->48->1 ] (#non-depot=1) {#cumul.=74}
cr the 36-th chain: [ 1->4->1 ] (#non-depot=1) {#cumul.=75}
cr the 37-th chain: [ 1->44->1 ] (#non-depot=1) {#cumul.=76}
c Latest Answer = 0 by 9 loops
c restarts              : 229
c conflicts             : 5157735        (1326 /sec)
c decisions             : 44114838       (0.00 % random) (11341 /sec)
c propagations          : 20279091149    (5213297 /sec)
c conflict literals     : 3485502930     (25.32 % deleted)
c Memory used           : 7422.00 MB
c CPU time              : 3889.88 s
